c turning on binary mode checking
c parsing input formula with 202048 variables and 780975 clauses
c finished parsing, read 35878955 bytes from proof file
c detected empty clause; start verification via backward checking
c 73997 of 780975 clauses in core                            
c 150455 of 699596 lemmas in core using 2519764 resolution steps
c 0 RAT lemmas in core; 27419 redundant literals in core lemmas
s VERIFIED
c verification time: 9.543 seconds
